50
7294

483 610
879 972
884 555
788 886
32 806
872 499
976 711
606 95
784 572
628 931
311 715
703 878
567 633
248 188
544 267
762 785
525 821
691 336
653 573
150 788
828 907
28 662
57 821
483 16
927 95
903 404
822 562
927 316
440 151
116 436
193 651
356 746
530 742
205 295
710 712
671 713
650 72
98 877
234 660
184 692
267 1000
363 338
845 561
912 482
176 817
358 940
740 307
630 665
330 8
679 28
